proyfinal/src/viki/013/experimentInOfficeAgust.take6.output/b6dcb718-798c-4235-864f-49707d5bffd3.als.dat
{'cnf.clauses': '118081',
 'cnf.totvars': '69608',
 'conflict literals': '17',
 'conflicts': '12',
 'decisions': '1434',
 'memused.mb': '16.26',
 'outcome': 'UNSAT',
 'propagations': '37560',
 'restarts': '1',
 'solver.msecs': 37,
 'task.msecs': 89}
