proyfinal/src/viki/013/experimentInOfficeAgust.take6.output/b6dcb718-798c-4235-864f-49707d5bffd3.als.out
Reading from standard input... Use '--help' for help.
============================[ Problem Statistics ]=============================
|                                                                             |
|  Number of variables:         69608                                         |
|  Number of clauses:          118081                                         |
|  Parse time:                   0.03 s                                       |
|                                                                             |
============================[ Search Statistics ]==============================
| Conflicts |          ORIGINAL         |          LEARNT          | Progress |
|           |    Vars  Clauses Literals |    Limit  Clauses Lit/Cl |          |
===============================================================================
===============================================================================
restarts              : 1
conflicts             : 12             (322 /sec)
decisions             : 1434           (0.00 % random) (38467 /sec)
propagations          : 37560          (1007538 /sec)
conflict literals     : 17             (10.53 % deleted)
Memory used           : 16.26 MB
CPU time              : 0.037279 s

UNSATISFIABLE
